Route 1: 0 16 29 74 46 95 24 0
Route 2: 0 71 82 70 78 28 76 32 44 57 27 45 0
Route 3: 0 66 23 50 34 56 90 40 19 92 39 49 14 0
Route 4: 0 93 61 10 12 79 9 5 43 80 48 63 51 0
Route 5: 0 98 62 83 6 84 17 41 96 0
Route 6: 0 72 99 4 22 47 54 94 26 25 59 0
Route 7: 0 58 3 13 8 67 15 64 18 33 69 0
Route 8: 0 21 88 30 52 31 87 85 77 0
Route 9: 0 97 65 55 36 91 68 100 73 7 60 53 0
Route 10: 0 2 11 42 81 89 20 0
Route 11: 0 1 75 86 38 35 37 0
